p cnf 60 615
1 2 3 4 5 6 7 8 9 10 11 12 0
13 14 15 16 17 18 19 20 21 22 23 24 0
25 26 27 28 29 30 31 32 33 34 35 36 0
37 38 39 40 41 42 43 44 45 46 47 48 0
49 50 51 52 53 54 55 56 57 58 59 60 0
-1 -4 0
-1 -16 0
-1 -28 0
-1 -40 0
-1 -52 0
-13 -4 0
-13 -16 0
-13 -28 0
-13 -40 0
-13 -52 0
-25 -4 0
-25 -16 0
-25 -28 0
-25 -40 0
-25 -52 0
-37 -4 0
-37 -16 0
-37 -28 0
-37 -40 0
-37 -52 0
-49 -4 0
-49 -16 0
-49 -28 0
-49 -40 0
-49 -52 0
-1 -11 0
-1 -23 0
-1 -35 0
-1 -47 0
-1 -59 0
-13 -11 0
-13 -23 0
-13 -35 0
-13 -47 0
-13 -59 0
-25 -11 0
-25 -23 0
-25 -35 0
-25 -47 0
-25 -59 0
-37 -11 0
-37 -23 0
-37 -35 0
-37 -47 0
-37 -59 0
-49 -11 0
-49 -23 0
-49 -35 0
-49 -47 0
-49 -59 0
-2 -3 0
-2 -15 0
-2 -27 0
-2 -39 0
-2 -51 0
-14 -3 0
-14 -15 0
-14 -27 0
-14 -39 0
-14 -51 0
-26 -3 0
-26 -15 0
-26 -27 0
-26 -39 0
-26 -51 0
-38 -3 0
-38 -15 0
-38 -27 0
-38 -39 0
-38 -51 0
-50 -3 0
-50 -15 0
-50 -27 0
-50 -39 0
-50 -51 0
-3 -10 0
-3 -22 0
-3 -34 0
-3 -46 0
-3 -58 0
-15 -10 0
-15 -22 0
-15 -34 0
-15 -46 0
-15 -58 0
-27 -10 0
-27 -22 0
-27 -34 0
-27 -46 0
-27 -58 0
-39 -10 0
-39 -22 0
-39 -34 0
-39 -46 0
-39 -58 0
-51 -10 0
-51 -22 0
-51 -34 0
-51 -46 0
-51 -58 0
-6 -9 0
-6 -21 0
-6 -33 0
-6 -45 0
-6 -57 0
-18 -9 0
-18 -21 0
-18 -33 0
-18 -45 0
-18 -57 0
-30 -9 0
-30 -21 0
-30 -33 0
-30 -45 0
-30 -57 0
-42 -9 0
-42 -21 0
-42 -33 0
-42 -45 0
-42 -57 0
-54 -9 0
-54 -21 0
-54 -33 0
-54 -45 0
-54 -57 0
-7 -9 0
-7 -21 0
-7 -33 0
-7 -45 0
-7 -57 0
-19 -9 0
-19 -21 0
-19 -33 0
-19 -45 0
-19 -57 0
-31 -9 0
-31 -21 0
-31 -33 0
-31 -45 0
-31 -57 0
-43 -9 0
-43 -21 0
-43 -33 0
-43 -45 0
-43 -57 0
-55 -9 0
-55 -21 0
-55 -33 0
-55 -45 0
-55 -57 0
-10 -12 0
-10 -24 0
-10 -36 0
-10 -48 0
-10 -60 0
-22 -12 0
-22 -24 0
-22 -36 0
-22 -48 0
-22 -60 0
-34 -12 0
-34 -24 0
-34 -36 0
-34 -48 0
-34 -60 0
-46 -12 0
-46 -24 0
-46 -36 0
-46 -48 0
-46 -60 0
-58 -12 0
-58 -24 0
-58 -36 0
-58 -48 0
-58 -60 0
-11 -12 0
-11 -24 0
-11 -36 0
-11 -48 0
-11 -60 0
-23 -12 0
-23 -24 0
-23 -36 0
-23 -48 0
-23 -60 0
-35 -12 0
-35 -24 0
-35 -36 0
-35 -48 0
-35 -60 0
-47 -12 0
-47 -24 0
-47 -36 0
-47 -48 0
-47 -60 0
-59 -12 0
-59 -24 0
-59 -36 0
-59 -48 0
-59 -60 0
-1 -2 0
-1 -3 0
-1 -5 0
-1 -6 0
-1 -7 0
-1 -8 0
-1 -9 0
-1 -10 0
-1 -12 0
-2 -4 0
-2 -5 0
-2 -6 0
-2 -7 0
-2 -8 0
-2 -9 0
-2 -10 0
-2 -11 0
-2 -12 0
-3 -4 0
-3 -5 0
-3 -6 0
-3 -7 0
-3 -8 0
-3 -9 0
-3 -11 0
-3 -12 0
-4 -5 0
-4 -6 0
-4 -7 0
-4 -8 0
-4 -9 0
-4 -10 0
-4 -11 0
-4 -12 0
-5 -6 0
-5 -7 0
-5 -8 0
-5 -9 0
-5 -10 0
-5 -11 0
-5 -12 0
-6 -7 0
-6 -8 0
-6 -10 0
-6 -11 0
-6 -12 0
-7 -8 0
-7 -10 0
-7 -11 0
-7 -12 0
-8 -9 0
-8 -10 0
-8 -11 0
-8 -12 0
-9 -10 0
-9 -11 0
-9 -12 0
-10 -11 0
-13 -14 0
-13 -15 0
-13 -17 0
-13 -18 0
-13 -19 0
-13 -20 0
-13 -21 0
-13 -22 0
-13 -24 0
-14 -16 0
-14 -17 0
-14 -18 0
-14 -19 0
-14 -20 0
-14 -21 0
-14 -22 0
-14 -23 0
-14 -24 0
-15 -16 0
-15 -17 0
-15 -18 0
-15 -19 0
-15 -20 0
-15 -21 0
-15 -23 0
-15 -24 0
-16 -17 0
-16 -18 0
-16 -19 0
-16 -20 0
-16 -21 0
-16 -22 0
-16 -23 0
-16 -24 0
-17 -18 0
-17 -19 0
-17 -20 0
-17 -21 0
-17 -22 0
-17 -23 0
-17 -24 0
-18 -19 0
-18 -20 0
-18 -22 0
-18 -23 0
-18 -24 0
-19 -20 0
-19 -22 0
-19 -23 0
-19 -24 0
-20 -21 0
-20 -22 0
-20 -23 0
-20 -24 0
-21 -22 0
-21 -23 0
-21 -24 0
-22 -23 0
-25 -26 0
-25 -27 0
-25 -29 0
-25 -30 0
-25 -31 0
-25 -32 0
-25 -33 0
-25 -34 0
-25 -36 0
-26 -28 0
-26 -29 0
-26 -30 0
-26 -31 0
-26 -32 0
-26 -33 0
-26 -34 0
-26 -35 0
-26 -36 0
-27 -28 0
-27 -29 0
-27 -30 0
-27 -31 0
-27 -32 0
-27 -33 0
-27 -35 0
-27 -36 0
-28 -29 0
-28 -30 0
-28 -31 0
-28 -32 0
-28 -33 0
-28 -34 0
-28 -35 0
-28 -36 0
-29 -30 0
-29 -31 0
-29 -32 0
-29 -33 0
-29 -34 0
-29 -35 0
-29 -36 0
-30 -31 0
-30 -32 0
-30 -34 0
-30 -35 0
-30 -36 0
-31 -32 0
-31 -34 0
-31 -35 0
-31 -36 0
-32 -33 0
-32 -34 0
-32 -35 0
-32 -36 0
-33 -34 0
-33 -35 0
-33 -36 0
-34 -35 0
-37 -38 0
-37 -39 0
-37 -41 0
-37 -42 0
-37 -43 0
-37 -44 0
-37 -45 0
-37 -46 0
-37 -48 0
-38 -40 0
-38 -41 0
-38 -42 0
-38 -43 0
-38 -44 0
-38 -45 0
-38 -46 0
-38 -47 0
-38 -48 0
-39 -40 0
-39 -41 0
-39 -42 0
-39 -43 0
-39 -44 0
-39 -45 0
-39 -47 0
-39 -48 0
-40 -41 0
-40 -42 0
-40 -43 0
-40 -44 0
-40 -45 0
-40 -46 0
-40 -47 0
-40 -48 0
-41 -42 0
-41 -43 0
-41 -44 0
-41 -45 0
-41 -46 0
-41 -47 0
-41 -48 0
-42 -43 0
-42 -44 0
-42 -46 0
-42 -47 0
-42 -48 0
-43 -44 0
-43 -46 0
-43 -47 0
-43 -48 0
-44 -45 0
-44 -46 0
-44 -47 0
-44 -48 0
-45 -46 0
-45 -47 0
-45 -48 0
-46 -47 0
-49 -50 0
-49 -51 0
-49 -53 0
-49 -54 0
-49 -55 0
-49 -56 0
-49 -57 0
-49 -58 0
-49 -60 0
-50 -52 0
-50 -53 0
-50 -54 0
-50 -55 0
-50 -56 0
-50 -57 0
-50 -58 0
-50 -59 0
-50 -60 0
-51 -52 0
-51 -53 0
-51 -54 0
-51 -55 0
-51 -56 0
-51 -57 0
-51 -59 0
-51 -60 0
-52 -53 0
-52 -54 0
-52 -55 0
-52 -56 0
-52 -57 0
-52 -58 0
-52 -59 0
-52 -60 0
-53 -54 0
-53 -55 0
-53 -56 0
-53 -57 0
-53 -58 0
-53 -59 0
-53 -60 0
-54 -55 0
-54 -56 0
-54 -58 0
-54 -59 0
-54 -60 0
-55 -56 0
-55 -58 0
-55 -59 0
-55 -60 0
-56 -57 0
-56 -58 0
-56 -59 0
-56 -60 0
-57 -58 0
-57 -59 0
-57 -60 0
-58 -59 0
-1 -13 0
-1 -25 0
-1 -37 0
-1 -49 0
-13 -25 0
-13 -37 0
-13 -49 0
-25 -37 0
-25 -49 0
-37 -49 0
-2 -14 0
-2 -26 0
-2 -38 0
-2 -50 0
-14 -26 0
-14 -38 0
-14 -50 0
-26 -38 0
-26 -50 0
-38 -50 0
-3 -15 0
-3 -27 0
-3 -39 0
-3 -51 0
-15 -27 0
-15 -39 0
-15 -51 0
-27 -39 0
-27 -51 0
-39 -51 0
-4 -16 0
-4 -28 0
-4 -40 0
-4 -52 0
-16 -28 0
-16 -40 0
-16 -52 0
-28 -40 0
-28 -52 0
-40 -52 0
-5 -17 0
-5 -29 0
-5 -41 0
-5 -53 0
-17 -29 0
-17 -41 0
-17 -53 0
-29 -41 0
-29 -53 0
-41 -53 0
-6 -18 0
-6 -30 0
-6 -42 0
-6 -54 0
-18 -30 0
-18 -42 0
-18 -54 0
-30 -42 0
-30 -54 0
-42 -54 0
-7 -19 0
-7 -31 0
-7 -43 0
-7 -55 0
-19 -31 0
-19 -43 0
-19 -55 0
-31 -43 0
-31 -55 0
-43 -55 0
-8 -20 0
-8 -32 0
-8 -44 0
-8 -56 0
-20 -32 0
-20 -44 0
-20 -56 0
-32 -44 0
-32 -56 0
-44 -56 0
-9 -21 0
-9 -33 0
-9 -45 0
-9 -57 0
-21 -33 0
-21 -45 0
-21 -57 0
-33 -45 0
-33 -57 0
-45 -57 0
-10 -22 0
-10 -34 0
-10 -46 0
-10 -58 0
-22 -34 0
-22 -46 0
-22 -58 0
-34 -46 0
-34 -58 0
-46 -58 0
-11 -23 0
-11 -35 0
-11 -47 0
-11 -59 0
-23 -35 0
-23 -47 0
-23 -59 0
-35 -47 0
-35 -59 0
-47 -59 0
-12 -24 0
-12 -36 0
-12 -48 0
-12 -60 0
-24 -36 0
-24 -48 0
-24 -60 0
-36 -48 0
-36 -60 0
-48 -60 0
